&inputph
    prefix = 'scf'
    outdir = './'
    fildyn = 'dyn'
    tr2_ph=1.0d-16
    ldisp=.true.
    nq1=3,
    nq2=3,
    nq3=3,
   alpha_mix=0.3
    max_seconds=1692000,
/
