&CONTROL
    calculation = 'bands'
    pseudo_dir  = '/home/rkarkee/merced_home_backup/rkarkee/pseudo'
    outdir       = './'
    prefix = 'scf1'
    tprnfor = .true.
    tstress = .true.
    wf_collect=.true.
    verbosity='high'
/

&SYSTEM
    ecutwfc     = 60,
    nat         = 50,
    ntyp        = 5,
    ibrav=0
    nbnd=330
      occupations = 'smearing'
    smearing = 'gaussian'
    degauss = 0.0001

/

&ELECTRONS
    conv_thr         =  1.00000e-10
    electron_maxstep = 200
    mixing_beta      =  0.5
    diagonalization  = "david"
!    diago_david_ndim = 4
!    diago_full_acc = .true.

/

&IONS
/

&CELL
press_conv_thr = 0.001
/




ATOMIC_SPECIES
Pb 207.2 Pb.upf
Br 79.90 Br.upf
C  12.01 C.upf
H 1.008 H.upf
N 14.01 N.upf

CELL_PARAMETERS (angstrom)
   7.302651473   7.366129248   3.019341989
   7.302651314  -7.366129428   3.019341935
   7.302651732  -7.366128735  -3.019342611

ATOMIC_POSITIONS (angstrom)
Pb           16.2859879841       -7.3661289389        1.5096704141
Pb            5.6219661057        0.0000000239        1.5096708964
Br            5.8183999385        3.0177025734        1.5096709444
Br            5.8183998735       -3.0177025104        1.5096709223
Br           16.0895542653      -10.3838311665        1.5096704111
Br           16.0895547652       -4.3484262945        1.5096706142
Br           13.0416687618       -7.3661290529        1.5096705521
Br            8.8662857589        0.0000001389        1.5096707583
Br           11.8847303725        0.0000000630        4.5290129682
Br           10.0232242063       -7.3661285939       -1.5096715007
C            11.2732341492       -2.9929434606        1.5096706442
C            11.2732341592        2.9929439627        1.5096706443
C            10.6347203694       -4.3731854535        1.5096706662
C            10.6347202394      -10.3590728996        1.5096706152
C            13.4362940088       -1.8003773517        1.5096705562
C             6.1336424569       -5.5657511892       -1.5096714636
C             8.4716607389       -5.5657513432        1.5096708442
C            15.7743119528       -1.8003776157        4.5290127291
H            10.9139270153       -4.9439938605        0.6151020815
H             3.6112754115       -2.4221349676       -0.6151027728
H            10.9940276434       -2.4221352886        0.6151020884
H            10.9940276733        2.4221356056        2.4042392911
H            10.9940270835       -2.4221350545        2.4042390490
H            18.2966794361       -4.9439939474        3.6344442192
H            10.9139266754       -4.9439938454        2.4042391320
H            10.9139271253       -9.7882644646        0.6151021314
H            14.5169137640       -1.9674306783        1.5096705093
H             7.2142621721       -5.3986981697       -1.5096715316
H             7.3910410817       -5.3986983446        1.5096707562
H            14.6936928475       -1.9674307992        4.5290128641
H             8.7834077641       -6.1097457688        2.4080619683
H             8.7834077802       -8.6225124992        0.6112795560
H            13.1245467456       -1.2563832421        2.4080617563
H            13.1245463757        1.2563839022        0.6112793622
H            13.1245466557       -1.2563828170        0.6112794781
H            13.1245465557        1.2563833942        2.4080616755
H             8.7834076702       -6.1097453428        0.6112795091
H             8.7834078731       -8.6225129252        2.4080620153
H             8.8586679524       -3.7050938807        0.6605855033
H             8.8586680233        3.7050940478        2.3587560593
H            13.0492869003       -3.6610350582        0.6605852343
H             5.7466349565       -3.7050936187       -0.6605860636
H            13.0492865703       -3.6610350332        2.3587559882
H            13.0492866103      -11.0712230738        0.6605851162
H             8.8586680523       -3.7050942948        2.3587560762
H            16.1613191314       -3.6610348571        3.6799273741
N            12.7565315147       -3.1242184209        1.5096705802
N             5.4538801899       -4.2419100300       -1.5096713506
N             9.1514230060       -4.2419104940        1.5096707302
N            16.4540744068       -3.1242186379        4.5290126950


K_POINTS crystal
   17
  0.125000000  0.125000000  0.125000000   2.0
  0.125000000  0.125000000  0.375000000   4.0
  0.125000000  0.125000000  0.625000000   4.0
  0.125000000  0.125000000  0.875000000   2.0
  0.125000000  0.375000000  0.125000000   8.0
  0.125000000  0.375000000  0.375000000   4.0
  0.125000000  0.375000000  0.625000000   8.0
  0.125000000  0.375000000  0.875000000   4.0
  0.125000000  0.625000000  0.125000000   4.0
  0.125000000  0.625000000  0.375000000   4.0
  0.125000000  0.625000000  0.625000000   4.0
  0.125000000  0.625000000  0.875000000   4.0
  0.125000000  0.875000000  0.375000000   4.0
  0.125000000  0.875000000  0.875000000   2.0
  0.375000000  0.375000000  0.375000000   2.0
  0.375000000  0.375000000  0.625000000   2.0
  0.375000000  0.625000000  0.625000000   2.0
