&CONTROL
    calculation = 'scf'
    pseudo_dir  = '/home/rkarkee/merced_home_backup/rkarkee/pseudo'
    outdir       = './'
    prefix = 'scf'
    tprnfor = .true.
    tstress = .true.
    wf_collect=.true.
    verbosity='high'
/

&SYSTEM
    ecutwfc     = 60,
    nat         = 50,
    ntyp        = 5,
    ibrav=0
/

&ELECTRONS
    conv_thr         =  1.00000e-10
    electron_maxstep = 200
    mixing_beta      =  0.5
    diagonalization  = "david"
!    diago_david_ndim = 4
!    diago_full_acc = .true.

/

&IONS
/

&CELL
press_conv_thr = 0.001
/



K_POINTS automatic
3 3 3 1 1 1

ATOMIC_SPECIES
Pb 207.2 Pb.upf
Br 79.90 Br.upf
C  12.01 C.upf
H 1.008 H.upf
N 14.01 N.upf


CELL_PARAMETERS (angstrom)
   7.298596017   7.368451350   3.019468303
   7.298596017  -7.368451350   3.019468303
   7.298596017  -7.368451350  -3.019468303

ATOMIC_POSITIONS (crystal)
Pb            0.6151444546        0.7500000000        0.8651444546
Pb            0.3848555454        0.2500000000        0.1348555454
Br            0.6030770429        0.0452313266        0.1483083696
Br            0.1935396950        0.4547686744        0.1483083696
Br            0.3969229571        0.9547686744        0.8516916304
Br            0.8064603050        0.5452313266        0.8516916304
Br            0.3928818618        0.7500000000        0.6428818618
Br            0.6071181382        0.2500000000        0.3571181382
Br            0.8139102797        0.7500000000        0.0639102797
Br            0.1860897203        0.2500000000        0.9360897203
C             0.5687027538        0.4531714984        0.5218742524
C             0.9750457508        0.0468285016        0.5218742524
C             0.4312972462        0.5468285016        0.4781257476
C             0.0249542492        0.9531714984        0.4781257476
C             0.7978127953        0.3722504509        0.6700632462
C             0.0423136961        0.1277495501        0.6700632462
C             0.2021872047        0.6277495501        0.3299367538
C             0.9576863039        0.8722504509        0.3299367538
H             0.4116913397        0.4374246975        0.6453863838
H             0.0828110813        0.0625753025        0.3491160373
H             0.5883086603        0.2663049560        0.6508839627
H             0.9171889187        0.2336950440        0.3546136162
H             0.5883086603        0.5625753025        0.3546136162
H             0.9171889187        0.9374246975        0.6508839627
H             0.4116913397        0.7336950440        0.3491160373
H             0.0828110813        0.7663049560        0.6453863838
H             0.8605084196        0.3835842565        0.7440926761
H             0.1276769327        0.1164157435        0.7440926761
H             0.1394915804        0.6164157435        0.2559073239
H             0.8723230673        0.8835842565        0.2559073239
H             0.1866204870        0.8134308470        0.2025240987
H             0.0159549458        0.6865691530        0.5000513341
H             0.8133795130        0.4840963894        0.4999486659
H             0.9840450542        0.0159036106        0.7974759013
H             0.8133795130        0.1865691530        0.7974759013
H             0.9840450542        0.3134308470        0.4999486659
H             0.1866204870        0.5159036106        0.5000513341
H             0.0159549458        0.9840963894        0.2025240987
H             0.3549696300        0.3608951144        0.4970525319
H             0.8579476474        0.1391048856        0.2158647445
H             0.6450303700        0.3579170981        0.7841352555
H             0.1420523526        0.1420829019        0.5029474681
H             0.6450303700        0.6391048856        0.5029474681
H             0.1420523526        0.8608951144        0.7841352555
H             0.3549696300        0.6420829019        0.2158647445
H             0.8579476474        0.8579170981        0.4970525319
N             0.6614085415        0.4620805519        0.6234890933
N             0.0855696442        0.0379194491        0.6234890933
N             0.3385914585        0.5379194491        0.3765109067
N             0.9144303558        0.9620805519        0.3765109067
