&input
fildyn='dyn'
asr='crystal'
fileig='eigvecs'
filxsf='displacements.axsf'
/
