&inputph
    prefix = 'scf'
    outdir = './'
   trans=.true.,
   lraman=.true.,
   epsil=.true.
  outdir='./',
   tr2_ph=1.0d-18,
 fildyn='dyn',
 alpha_mix=0.3,
 max_seconds=169200,

/
0.0 0.0 0.0
