&CONTROL
    calculation = 'scf'
    pseudo_dir  = '/home/rkarkee/merced_home_backup/rkarkee/LDA'
    outdir       = './'
    prefix = 'scf'
    tprnfor = .true.
    tstress=.true.
    wf_collect=.true.
    verbosity='high'
  nstep=200
/

&SYSTEM
    ecutwfc     = 80,
    nat         = 50,
    ntyp        = 5,
    ibrav=0
/

&ELECTRONS
    conv_thr         =  1.00000e-12
    electron_maxstep = 200
    mixing_beta      =  0.5
    diagonalization  = "david"
!    diago_david_ndim = 4
!    diago_full_acc = .true.

/

&IONS
ion_dynamics='fire'
/

&CELL
press_conv_thr = 0.001
/



K_POINTS automatic
3 3 3 1 1 1

ATOMIC_SPECIES
Pb 207.2 Pb.upf
Br 79.90 Br.upf
C  12.01 C.upf
H 1.008 H.upf
N 14.01 N.upf

CELL_PARAMETERS (angstrom)
   6.951744381   7.153406211   2.965590700
   6.951744381  -7.153406211   2.965590700
   6.951744381  -7.153406211  -2.965590700

ATOMIC_POSITIONS (crystal)
Pb            0.6151946029        0.7500000000        0.8651946029
Pb            0.3848053971        0.2500000000        0.1348053971
Br            0.6030820824        0.0436181711        0.1467002536
Br            0.1903184234        0.4563818299        0.1467002536
Br            0.3969179176        0.9563818299        0.8532997464
Br            0.8096815766        0.5436181711        0.8532997464
Br            0.3893861136        0.7500000000        0.6393861136
Br            0.6106138864        0.2500000000        0.3606138864
Br            0.8199205865        0.7500000000        0.0699205865
Br            0.1800794135        0.2500000000        0.9300794135
C             0.5703112656        0.4521912837        0.5225025494
C             0.9746938331        0.0478087163        0.5225025494
C             0.4296887344        0.5478087163        0.4774974506
C             0.0253061669        0.9521912837        0.4774974506
C             0.8061033031        0.3688454348        0.6749487380
C             0.0437941717        0.1311545662        0.6749487380
C             0.1938966969        0.6311545662        0.3250512620
C             0.9562058283        0.8688454348        0.3250512620
H             0.4103142487        0.4365007738        0.6498739616
H             0.0863747353        0.0634992262        0.3468150225
H             0.5896857513        0.2604402873        0.6531849775
H             0.9136252647        0.2395597127        0.3501260384
H             0.5896857513        0.5634992262        0.3501260384
H             0.9136252647        0.9365007738        0.6531849775
H             0.4103142487        0.7395597127        0.3468150225
H             0.0863747353        0.7604402873        0.6498739616
H             0.8748645698        0.3786222165        0.7534867862
H             0.1321090027        0.1213777835        0.7534867862
H             0.1251354302        0.6213777835        0.2465132138
H             0.8678909973        0.8786222165        0.2465132138
H             0.1788069863        0.8215876511        0.1960464410
H             0.0176340922        0.6784123489        0.5003946376
H             0.8211930137        0.4827605465        0.4996053624
H             0.9823659078        0.0172394535        0.8039535590
H             0.8211930137        0.1784123489        0.8039535590
H             0.9823659078        0.3215876511        0.4996053624
H             0.1788069863        0.5172394535        0.5003946376
H             0.0176340922        0.9827605465        0.1960464410
H             0.3494886125        0.3572912151        0.4950669462
H             0.8523581624        0.1427087849        0.2067798278
H             0.6505113875        0.3544216663        0.7932201722
H             0.1476418376        0.1455783337        0.5049330538
H             0.6505113875        0.6427087849        0.5049330538
H             0.1476418376        0.8572912151        0.7932201722
H             0.3494886125        0.6455783337        0.2067798278
H             0.8523581624        0.8544216663        0.4950669462
N             0.6671286181        0.4606024319        0.6277310500
N             0.0883334809        0.0393975691        0.6277310500
N             0.3328713819        0.5393975691        0.3722689500
N             0.9116665191        0.9606024319        0.3722689500
