&CONTROL
    calculation = 'scf'
    pseudo_dir  = '/home/rkarkee/merced_home_backup/rkarkee/pseudo'
    outdir       = './'
    prefix = 'scf'
    tprnfor = .true.
    tstress = .true.
    wf_collect=.true.
    verbosity='high'
/

&SYSTEM
    ecutwfc     = 60,
    nat         = 100,
    ntyp        = 5,
    ibrav=0
/

&ELECTRONS
    conv_thr         =  1.00000e-12
    electron_maxstep = 200
    mixing_beta      =  0.5
    diagonalization  = "david"
!    diago_david_ndim = 4
!    diago_full_acc = .true.

/

&IONS
ion_dynamics='fire'
/

&CELL
press_conv_thr = 0.01
/



K_POINTS automatic
3 3 3 1 1 1

ATOMIC_SPECIES
Pb 207.2 Pb.upf
Br 79.90 Br.upf
C  12.01 C.upf
H 1.008 H.upf
N 14.01 N.upf


CELL_PARAMETERS (angstrom)
7.363302746	3.019573675	7.30490027
-7.363302746	3.019573675	7.30490027
-7.363302746	-3.019573675	7.30490027



ATOMIC_POSITIONS (angstrom)
Pb	0	3.681651354	9.276638761
Pb	0	11.04495406	5.333161578
Pb	3.019573689	11.04495406	1.971738592
Pb	3.019573689	3.681651354	12.63806175
Br	0	0.664169901	9.47284837
Br	0	14.0624359	5.136951969
Br	0	6.699132752	9.47284837
Br	0	8.027472224	5.136951969
Br	3.019573689	8.027472224	2.167948201
Br	3.019573689	6.699132752	12.44185214
Br	3.019573689	14.0624359	2.167948201
Br	3.019573689	0.664169901	12.44185214
Br	0	3.681651354	12.52089139
Br	0	11.04495406	2.088908953
Br	3.019573689	11.04495406	5.215991216
Br	3.019573689	3.681651354	9.393809123
Br	0	3.681651354	6.37527836
Br	0	11.04495406	8.234521544
Br	3.019573689	11.04495406	13.68017896
Br	3.019573689	3.681651354	0.92962181
C	0	6.673213839	0.319370232
C	0	8.053391137	14.29043005
C	0	0.690088869	0.319370232
C	0	14.03651699	14.29043005
C	3.019573689	14.03651699	7.624270455
C	3.019573689	0.690088869	6.985529883
C	3.019573689	8.053391137	7.624270455
C	3.019573689	6.673213839	6.985529883
C	0	9.245657632	12.12730267
C	0	5.480947783	2.482497672
C	0	12.84425049	12.12730267
C	0	1.882354924	2.482497672
C	3.019573689	1.882354924	4.822402498
C	3.019573689	12.84425049	9.787397841
C	3.019573689	5.480947783	4.822402498
C	3.019573689	9.245657632	9.787397841
H	3.914152587	1.26089197	7.264723083
H	2.12499479	13.46571367	7.345077692
H	2.12499479	6.102410957	7.264723083
H	3.914152587	8.624194458	7.345077692
H	2.12499479	8.624194458	7.345077692
H	3.914152587	6.102410957	7.264723083
H	3.914152587	13.46571367	7.345077692
H	2.12499479	1.26089197	7.264723083
H	0.894578899	8.624194458	14.56962282
H	5.144568478	6.102410957	0.040177087
H	5.144568478	13.46571367	14.56962282
H	0.894578899	1.26089197	0.040177087
H	5.144568478	1.26089197	0.040177087
H	0.894578899	13.46571367	14.56962282
H	0.894578899	6.102410957	0.040177087
H	5.144568478	8.624194458	14.56962282
H	0	9.078510135	11.04676261
H	0	5.64809528	3.563037725
H	0	13.01139799	11.04676261
H	0	1.715207428	3.563037725
H	3.019573689	1.715207428	3.741862444
H	3.019573689	13.01139799	10.8679379
H	3.019573689	5.64809528	3.741862444
H	3.019573689	9.078510135	10.8679379
H	2.121190179	2.426502879	5.134029959
H	3.917957018	12.30010254	9.475769944
H	3.917957018	4.936799828	5.134029959
H	2.121190179	9.789805587	9.475769944
H	3.917957018	9.789805587	9.475769944
H	2.121190179	4.936799828	5.134029959
H	2.121190179	12.30010254	9.475769944
H	3.917957018	2.426502879	5.134029959
H	5.140764048	9.789805587	12.43893056
H	0.898383509	4.936799828	2.17087021
H	0.898383509	12.30010254	12.43893056
H	5.140764048	2.426502879	2.17087021
H	0.898383509	2.426502879	2.17087021
H	5.140764048	12.30010254	12.43893056
H	5.140764048	4.936799828	2.17087021
H	0.898383509	9.789805587	12.43893056
H	5.190043101	7.341507138	2.095337505
H	0.849104276	7.385097838	12.51446305
H	0.849104276	0.021795569	2.095337505
H	5.190043101	14.70481029	12.51446305
H	0.849104276	14.70481029	12.51446305
H	5.190043101	0.021795569	2.095337505
H	5.190043101	7.385097838	12.51446305
H	0.849104276	7.341507138	2.095337505
H	2.170469412	14.70481029	9.400237456
H	3.868677965	0.021795569	5.209562882
H	3.868677965	7.385097838	9.400237456
H	2.170469412	7.341507138	5.209562882
H	3.868677965	7.341507138	5.209562882
H	2.170469412	7.385097838	9.400237456
H	2.170469412	0.021795569	5.209562882
H	3.868677965	14.70481029	9.400237456
N	0	7.921883024	12.8072431
N	0	6.804722391	1.802557244
N	0	14.1680251	12.8072431
N	0	0.558580316	1.802557244
N	3.019573689	0.558580316	5.502342925
N	3.019573689	14.1680251	9.107457413
N	3.019573689	6.804722391	5.502342925
N	3.019573689	7.921883024	9.107457413
