&input
fildyn='dyn',
zasr='simple',
flfrc='1d.fc'
/
