&CONTROL
    calculation = 'scf'
    pseudo_dir  = '/home/rkarkee/merced_home_backup/rkarkee/pseudo'
    outdir       = './'
    prefix = 'scf'
    tprnfor = .true.
    tstress = .true.
    wf_collect=.true.
    verbosity='high'
/

&SYSTEM
    ecutwfc     = 60,
    nat         = 50,
    ntyp        = 5,
    ibrav=0
      occupations = 'smearing'
    smearing = 'gaussian'
    degauss = 0.0001

/

&ELECTRONS
    conv_thr         =  1.00000e-12
    electron_maxstep = 200
    mixing_beta      =  0.5
    diagonalization  = "david"
!    diago_david_ndim = 4
!    diago_full_acc = .true.

/

&IONS
ion_dynamics='fire'
/

&CELL
press_conv_thr = 0.01
/



K_POINTS automatic
3 3 3 1 1 1

ATOMIC_SPECIES
Pb 207.2 Pb.upf
Br 79.90 Br.upf
C  12.01 C.upf
H 1.008 H.upf
N 14.01 N.upf

CELL_PARAMETERS (angstrom)
   7.298596017   7.368451350   3.019468303
   7.298596017  -7.368451350   3.019468303
   7.298596017  -7.368451350  -3.019468303

ATOMIC_POSITIONS (angstrom)
Pb	16.461374768963665	-7.369223072528116	1.5381182487192429
Pb	5.4024067424213	-0.0007024947509551998	1.5375661140635672
Br	5.755927033404039	2.988255120972692	1.5349268743596278
Br	5.755939872066872	-2.9892838394943544	1.5343140685887575
Br	16.17972159090278	-10.38681204670856	1.535599640898494
Br	16.180165152547623	-4.351478254583131	1.5360649631006105
Br	14.055176882799188	-7.368134946796237	1.5241038675332483
Br	7.840375799314752	-0.0005249162090057086	1.5261922971393365
Br	12.075684046652103	-0.0007517081058503357	4.554411188623796
Br	9.803787133933318	-7.369022272813463	-1.4815013773039811
C	11.284791862374535	-3.005126493834572	1.5337570784547563
C	11.284843066301331	3.0036560326932897	1.5338528706915322
C	10.62972801445627	-4.382256356438459	1.534970097205645
C	10.629892986102947	-10.356063025549986	1.5346961665993588
C	13.473218761707734	-1.838488048160075	1.5333118406347326
C	6.1745485517276695	-5.53165646298742	-1.4863321168161483
C	8.434716369192705	-5.539477348036822	1.5360955651213237
C	15.733458566999948	-1.8303449526455646	4.5556002068419215
H	10.901504528324358	-4.945923016244806	0.6335654619987879
H	3.6037992579288383	-2.4250070599802966	-0.5828904512685413
H	11.01219616416825	-2.444104286243837	0.6309118029638306
H	11.01210740664064	2.441170241164657	2.4357329463544297
H	11.01169289919981	-2.442183402351534	2.4352361385083188
H	18.310369167045934	-4.926224482289117	3.6508662487721515
H	10.901778540845653	-4.944434657010241	2.4372460384899894
H	10.901282211938598	-9.79286684380784	0.6328791624895819
H	14.549513895950112	-2.0310082172046404	1.5339018712245747
H	7.250862189778274	-5.339249149835529	-1.4862472670149585
H	7.359239111254621	-5.341471390852827	1.5354505626691979
H	14.65798029230162	-2.028371353697459	4.55544585580266
H	8.725260515714627	-6.088502642520312	2.4379093464340924
H	8.725644022288684	-8.648715038865435	0.6350429219349837
H	13.178659782251112	-1.2896907871820653	2.4338518867660768
H	13.178734250457058	1.2891296964217	0.6318566520921433
H	13.179188855540426	-1.2912637521326515	0.631644303997098
H	13.178819527042803	1.2884938152106427	2.434049209135396
H	8.725837721831038	-6.09003180328933	0.6353939706636355
H	8.725695111023823	-8.649332904086188	2.437585656209756
H	8.869430163979725	-3.6917364720422166	0.684199891900216
H	8.87007667271138	3.689698934945901	2.3861122544353806
H	13.049120890307666	-3.6905966612874472	0.6846260390660752
H	5.750726499551131	-3.680230159642599	-0.6357392442563112
H	13.048866119453209	-3.689434640255652	2.3847719363697406
H	13.048920588533697	-11.048361698497404	0.6835951428677381
H	8.869592597463276	-3.69067258486626	2.3852798334136045
H	16.167866756561462	-3.678456466098392	3.704493869313642
N	12.766274935177266	-3.1493456149728134	1.5342982753035994
N	5.467751137839922	-4.220718193152151	-1.4858085661305922
N	9.148857771327986	-4.2328632835865205	1.5350838475151467
N	16.447611474669458	-3.1369489492785507	4.555011696442544
